CMD:
./solvers/bin/cadical --plain --no-reduce -t 1600 ./data/cnfs//beempgsol5b1/beempgsol5b1.6.cnf

c --- [ banner ] -------------------------------------------------------------
c 
c CaDiCaL SAT Solver
c Copyright (c) 2016-2024
c A. Biere, M. Fleury, N. Froleyks, K. Fazekas, F. Pollitt, T. Faller
c JKU Linz, University of Freiburg, TU Wien
c 
c Version 2.1.3 5296d3d2a9bf48c154ab2acb5e44625776d821bf
c g++ (Gentoo 12.3.1_p20230526 p2) 12.3.1 20230526 -Wall -Wextra -O3 -DNDEBUG
c Sat Aug 9 07:26:21 PDT 2025 Linux cedar2.int.cedar.computecanada.ca 5.14.0-362.24.2.el9_3.x86_64 x86_64
c 
c --- [ limit ] --------------------------------------------------------------
c 
c setting time limit to 1600 seconds real time (due to '-t 1600')
c 
c --- [ parsing input ] ------------------------------------------------------
c 
c reading DIMACS file from './data/cnfs//beempgsol5b1/beempgsol5b1.6.cnf'
c opening file to read './data/cnfs//beempgsol5b1/beempgsol5b1.6.cnf'
c found 'p cnf 93468 268216' header
c parsed 268216 clauses in 0.06 seconds process time
c 
c --- [ options ] ------------------------------------------------------------
c 
c   --compact=false                (different from default 'true')
c   --decompose=false              (different from default 'true')
c   --deduplicate=false            (different from default 'true')
c   --elim=false                   (different from default 'true')
c   --probe=false                  (different from default 'true')
c   --reduce=false                 (different from default 'true')
c   --subsume=false                (different from default 'true')
c   --ternary=false                (different from default 'true')
c   --transred=false               (different from default 'true')
c   --vivify=false                 (different from default 'true')
c 
c --- [ solving ] ------------------------------------------------------------
c 
c time measured in process time since initialization
c 
c  seconds  reductions  redundant  irredundant
c         MB    restarts       trail       variables
c          level   conflicts       glue         remaining
c 
c *  0.06 46  0 0   0    0    0  0% 0 266078 59779 64%
c {  0.07 47  0 0   0    0    0  0% 0 266078 59779 64%
c i  0.09 47 174 0   6   78   72 73% 8 266078 59723 64%
c i  0.11 47 98 0   7  208  191 57% 7 266078 59677 64%
c i  0.11 47 97 0   7  213  195 56% 7 266078 59665 64%
c i  0.11 47 95 0   7  221  202 56% 7 266078 59652 64%
c i  0.11 47 93 0   7  226  206 56% 6 266078 59606 64%
c i  0.11 47 93 0   7  227  206 55% 6 266078 59593 64%
c i  0.11 47 92 0   7  234  211 55% 6 266078 59544 64%
c i  0.11 47 88 0   7  253  225 54% 6 266078 59532 64%
c i  0.11 47 80 0   7  301  269 52% 6 266078 59520 64%
c i  0.11 47 80 0   7  303  270 52% 6 266078 59505 64%
c i  0.21 48 66 0  38  621  565 55% 7 266078 59496 64%
c i  0.26 48 64 0  52  692  624 55% 8 266078 59484 64%
c i  0.29 48 63 0  65  778  706 55% 8 266078 59466 64%
c i  0.36 48 60 0  82  954  870 55% 8 266078 59452 64%
c i  0.36 48 60 0  82  958  872 55% 8 266078 59441 64%
c }  0.37 48 58 0  84 1000  911 54% 8 266078 59441 64%
c [  0.37 48  0 0  84 1000  911  0% 0 266078 59441 64%
c O  0.37 48 18 0  84 1002  913 38% 1 266078 59441 64%
c 
c  seconds  reductions  redundant  irredundant
c         MB    restarts       trail       variables
c          level   conflicts       glue         remaining
c 
c i  0.37 48 28 0  84 1014  922 40% 4 266078 59430 64%
c ]  0.99 48 29 0  85 3001 2663 47% 15 266078 59430 64%
c {  0.99 48 58 0  85 3001 2663 54% 8 266078 59430 64%
c F  1.00 48 58 0  85 3004 2666 54% 8 266078 59430 64%
c i  1.36 49 64 0 164 4046 3609 53% 8 266078 59416 64%
c #  1.89 49 63 0 337 6006 5394 51% 8 266078 59416 64%
c }  2.25 49 62 0 441 7002 6289 51% 9 266078 59416 64%
c [  2.25 49 29 0 441 7002 6289 47% 15 266078 59416 64%
c I  5.64 50 47 0 443 10009 8558 59% 32 266078 59416 64%
c ] 10.77 52 44 0 446 15004 11708 62% 31 266078 59416 64%
c { 10.77 52 62 0 446 15004 11708 51% 9 266078 59416 64%
c B 10.78 52 62 0 446 15011 11714 51% 9 266078 59416 64%
c i 11.15 53 62 0 550 15578 12215 51% 9 266078 59414 64%
c } 11.15 53 62 0 550 15578 12215 51% 9 266078 59414 64%
c 1 11.15 53 62 0 550 15578 12215 51% 9 266078 59414 64%
c 
c --- [ result ] -------------------------------------------------------------
c 
s SATISFIABLE
v -1 -2 -3 -4 -5 -6 7 -8 -9 -10 -11 -12 -13 -14 15 -16 -17 -18 -19 -20 -21 -22
v -23 -24 -25 -26 -27 -28 -29 -30 -31 -32 -33 -34 -35 -36 -37 -38 -39 -40 -41
v -42 -43 -44 -45 -46 47 -48 -49 -50 -51 -52 -53 -54 55 -56 -57 -58 -59 -60
v -61 -62 63 -64 -65 -66 -67 -68 -69 -70 71 -72 -73 -74 -75 -76 -77 -78 -79
v -80 -81 -82 -83 -84 -85 -86 -87 -88 -89 -90 -91 -92 -93 -94 -95 -96 -97 -98
v -99 -100 -101 -102 103 -104 -105 -106 -107 -108 -109 -110 111 -112 -113 -114
v -115 -116 -117 -118 -119 -120 -121 -122 -123 -124 -125 -126 -127 -128 -129
v -130 -131 -132 -133 -134 -135 -136 -137 -138 -139 -140 -141 -142 -143 -144
v -145 -146 -147 -148 -149 -150 -151 -152 -153 -154 -155 -156 -157 -158 -159
v -160 -161 -162 -163 -164 -165 -166 -167 -168 -169 -170 -171 -172 -173 -174
... skipped 8199 lines ...
v -92903 -92904 -92905 -92906 92907 -92908 -92909 -92910 -92911 -92912 -92913
v 92914 -92915 -92916 -92917 -92918 -92919 92920 -92921 -92922 -92923 -92924
v -92925 92926 -92927 -92928 -92929 -92930 -92931 -92932 92933 -92934 -92935
v -92936 -92937 -92938 -92939 92940 -92941 -92942 -92943 -92944 -92945 -92946
v 92947 -92948 -92949 -92950 -92951 -92952 -92953 92954 -92955 -92956 -92957
v -92958 -92959 -92960 92961 -92962 -92963 -92964 -92965 -92966 -92967 -92968
v 92969 92970 -92971 -92972 -92973 -92974 -92975 -92976 -92977 92978 92979
v -92980 -92981 -92982 -92983 92984 -92985 -92986 -92987 92988 92989 -92990
v -92991 -92992 -92993 92994 -92995 -92996 -92997 92998 92999 -93000 -93001
v -93002 -93003 93004 -93005 -93006 93007 -93008 93009 -93010 -93011 -93012
v -93013 93014 -93015 -93016 93017 93018 -93019 -93020 -93021 -93022 93023
v -93024 93025 93026 93027 -93028 -93029 -93030 -93031 -93032 93033 -93034
v -93035 -93036 -93037 -93038 -93039 93040 -93041 -93042 -93043 -93044 -93045
v -93046 93047 -93048 -93049 -93050 -93051 -93052 -93053 93054 -93055 -93056
v -93057 -93058 -93059 -93060 93061 -93062 -93063 -93064 -93065 -93066 93067
v -93068 -93069 -93070 -93071 -93072 -93073 93074 -93075 -93076 -93077 -93078
v -93079 -93080 93081 -93082 -93083 -93084 -93085 -93086 -93087 93088 -93089
v -93090 -93091 -93092 -93093 -93094 93095 -93096 -93097 -93098 -93099 -93100
v 93101 -93102 -93103 -93104 -93105 -93106 -93107 93108 -93109 -93110 -93111
v -93112 -93113 -93114 93115 -93116 -93117 -93118 -93119 -93120 -93121 93122
v -93123 -93124 -93125 -93126 -93127 -93128 93129 -93130 -93131 -93132 -93133
v -93134 93135 -93136 -93137 -93138 -93139 -93140 -93141 93142 -93143 -93144
v -93145 -93146 -93147 -93148 93149 -93150 -93151 -93152 -93153 -93154 -93155
v 93156 -93157 -93158 -93159 -93160 -93161 -93162 93163 -93164 -93165 -93166
v -93167 -93168 93169 -93170 -93171 -93172 -93173 -93174 -93175 93176 -93177
v -93178 -93179 -93180 -93181 -93182 93183 -93184 -93185 -93186 -93187 -93188
v -93189 93190 -93191 -93192 -93193 -93194 -93195 -93196 93197 -93198 -93199
v -93200 -93201 -93202 93203 -93204 -93205 -93206 -93207 -93208 -93209 93210
v -93211 -93212 -93213 -93214 -93215 -93216 93217 -93218 -93219 -93220 -93221
v -93222 -93223 93224 -93225 -93226 -93227 -93228 -93229 -93230 93231 -93232
v -93233 -93234 -93235 -93236 93237 -93238 -93239 -93240 -93241 -93242 -93243
v 93244 -93245 -93246 -93247 -93248 -93249 -93250 93251 -93252 -93253 -93254
v -93255 -93256 -93257 93258 -93259 -93260 -93261 -93262 -93263 -93264 93265
v -93266 -93267 -93268 -93269 -93270 93271 -93272 -93273 -93274 -93275 -93276
v 93277 -93278 -93279 -93280 -93281 -93282 93283 -93284 -93285 -93286 -93287
v 93288 -93289 -93290 93291 93292 93293 93294 -93295 -93296 -93297 -93298
v -93299 93300 -93301 -93302 -93303 -93304 -93305 93306 -93307 -93308 -93309
v -93310 -93311 93312 -93313 -93314 -93315 -93316 93317 -93318 -93319 93320
v 93321 93322 93323 -93324 -93325 -93326 -93327 -93328 93329 -93330 -93331
v -93332 -93333 -93334 93335 -93336 -93337 -93338 -93339 -93340 93341 -93342
v -93343 -93344 -93345 93346 -93347 -93348 93349 93350 93351 93352 -93353
v -93354 -93355 -93356 -93357 93358 -93359 -93360 -93361 -93362 -93363 93364
v -93365 -93366 -93367 -93368 -93369 93370 -93371 -93372 -93373 -93374 93375
v -93376 -93377 93378 93379 93380 93381 -93382 -93383 -93384 -93385 -93386
v 93387 -93388 -93389 -93390 -93391 -93392 93393 -93394 -93395 -93396 -93397
v -93398 93399 -93400 -93401 -93402 -93403 93404 -93405 -93406 93407 93408
v 93409 93410 -93411 -93412 -93413 -93414 -93415 93416 -93417 -93418 -93419
v -93420 -93421 93422 -93423 -93424 -93425 -93426 -93427 93428 -93429 -93430
v -93431 -93432 93433 -93434 -93435 93436 93437 93438 93439 -93440 -93441
v -93442 -93443 -93444 93445 -93446 -93447 -93448 -93449 -93450 93451 -93452
v -93453 -93454 -93455 -93456 93457 93458 -93459 -93460 -93461 93462 -93463
v 93464 93465 93466 93467 -93468 0
c 
c --- [ run-time profiling ] -------------------------------------------------
c 
c process time taken by individual solving procedures
c (percentage relative to process time for solving)
c 
c        11.09  100.00% search
c         9.15   82.57% stable
c         1.92   17.34% unstable
c         0.06    0.56% parse
c         0.01    0.09% lucky
c         0.00    0.00% simplify
c   =================================
c        11.09   99.39% solve
c 
c last line shows process time for solving
c (percentage relative to total process time)
c 
c --- [ statistics ] ---------------------------------------------------------
c 
c chronological:              3541        22.73 %  of conflicts
c conflicts:                 15578      1405.15    per second
c decisions:                 57391      5176.71    per second
c fixed:                     34054        36.43 %  of all variables
c learned:                   15133        97.14 %  per conflict
c learned_lits:            2723135       100.00 %  learned literals
c minimized:                     0         0.00 %  learned literals
c shrunken:                1258690        46.22 %  learned literals
c minishrunken:             601066        22.07 %  learned literals
c otfs:                         41         0.26 %  of conflict
c propagations:          109107665         9.84 M  per second
c rephased:                      5      3115.60    interval
c restarts:                    550        28.32    interval
c stabilizing:                   2        64.21 %  of conflicts
c subsumed:                   2899         1.03 %  of all clauses
c strengthened:                 41         0.01 %  of all clauses
c 
c seconds are measured in process time for solving
c 
c --- [ resources ] ----------------------------------------------------------
c 
c total process time since initialization:        11.15    seconds
c total real time since initialization:           11.22    seconds
c maximum resident set size of process:           51.81    MB
c 
c --- [ shutting down ] ------------------------------------------------------
c 
c exit 10
